HUN,8,6,635
1,11,2,11,4,1,0,29,5,3,3,22
0,24,4,18,1,1,3,1,5,24,2,2
0,16,3,25,4,20,5,20,2,13,1,20
4,20,2,5,0,7,1,11,5,17,3,20
4,1,3,13,0,13,5,28,2,2,1,7
3,23,5,12,1,3,2,19,4,18,0,1
3,18,0,11,5,22,1,25,4,18,2,13
5,26,2,14,1,13,0,5,4,23,3,23
